Problem:    tempoDenarov2
Rows:       7
Columns:    5
Non-zeros:  19
Status:     OPTIMAL
Objective:  z = 0 (MAXimum)

   No.   Row name   St   Activity     Lower bound   Upper bound    Marginal
------ ------------ -- ------------- ------------- ------------- -------------
     1 Consumi[1]   B              0                          91 
     2 Consumi[2]   B              0                          40 
     3 Consumi[3]   B              0                          59 
     4 Manodopera   NU             0                          -0          1300 
     5 Def1         NS             0            -0             =             1 
     6 z            B              0                             
     7 Parametric   NU             0                          -0          1300 

   No. Column name  St   Activity     Lower bound   Upper bound    Marginal
------ ------------ -- ------------- ------------- ------------- -------------
     1 x[1]         NL             0             0                        -100 
     2 x[2]         B              0             0               
     3 x[3]         NL             0             0                        -100 
     4 f1           B              0                             
     5 f2           B              0                             

Karush-Kuhn-Tucker optimality conditions:

KKT.PE: max.abs.err = 0.00e+000 on row 0
        max.rel.err = 0.00e+000 on row 0
        High quality

KKT.PB: max.abs.err = 0.00e+000 on row 0
        max.rel.err = 0.00e+000 on row 0
        High quality

KKT.DE: max.abs.err = 0.00e+000 on column 0
        max.rel.err = 0.00e+000 on column 0
        High quality

KKT.DB: max.abs.err = 0.00e+000 on row 0
        max.rel.err = 0.00e+000 on row 0
        High quality

End of output
